\ Model _MPS_
\ LP format - for model browsing. Use MPS format to capture full model detail.
Minimize
  - t_x0 - t_x1
Subject To
 c0: t_x0 - 250000.9999983625 t_x1 >= -625002.4999959061
 c2: t_x0 - 3.99998e-06 t_x1 <= 2.5
Bounds
 2 <= t_x0 <= 3
 2 <= t_x1 <= 3
End
